%%%mzn-stat: initTime=0.004515633
%%%mzn-stat: objective=666
%%%mzn-stat: nodes=5527
%%%mzn-stat: restarts=0
%%%mzn-stat: peakDepth=169
%%%mzn-stat: solveTime=1.384941413
%%%mzn-stat: variables=451
%%%mzn-stat: propagators=277
%%%mzn-stat: failures=4775
%%%mzn-stat: propagations=188569
%%%mzn-stat: nogoods=4775
%%%mzn-stat: AverageConflictSize=30.63434554973822
%%%mzn-stat: NumUnitNogoodsLearned=665
%%%mzn-stat: AverageLearnedNogoodLength=28.20418848167539
%%%mzn-stat: AverageBacktrackAmount=0
%%%mzn-stat: AverageLbd=6.717696335078534
%%%mzn-stat-end
maxleg = 666;
succ = array1d(1..50,[2, 40, 48, 9, 46, 39, 45, 49, 35, 31, 38, 17, 29, 50, 25, 26, 3, 11, 5, 15, 37, 10, 13, 28, 22, 20, 18, 30, 42, 12, 23, 36, 16, 14, 19, 1, 33, 4, 24, 8, 32, 27, 6, 43, 44, 34, 21, 41, 47, 7]);
% time elapsed: 2.95 s
----------
==========
% time elapsed: 2.95 s
%%%mzn-stat: initTime=0.004515633
%%%mzn-stat: objective=666
%%%mzn-stat: nodes=5527
%%%mzn-stat: restarts=0
%%%mzn-stat: peakDepth=169
%%%mzn-stat: solveTime=1.384946848
%%%mzn-stat: variables=451
%%%mzn-stat: propagators=277
%%%mzn-stat: failures=4775
%%%mzn-stat: propagations=188569
%%%mzn-stat: nogoods=4775
%%%mzn-stat: AverageConflictSize=30.63434554973822
%%%mzn-stat: NumUnitNogoodsLearned=665
%%%mzn-stat: AverageLearnedNogoodLength=28.20418848167539
%%%mzn-stat: AverageBacktrackAmount=0
%%%mzn-stat: AverageLbd=6.717696335078534
%%%mzn-stat-end
